CMD:
./solvers/bin/cadical --plain --no-reduce -t 1600 ./data/cnfs//rast-p03/rast-p03.67.cnf

c --- [ banner ] -------------------------------------------------------------
c 
c CaDiCaL SAT Solver
c Copyright (c) 2016-2024
c A. Biere, M. Fleury, N. Froleyks, K. Fazekas, F. Pollitt, T. Faller
c JKU Linz, University of Freiburg, TU Wien
c 
c Version 2.1.3 5296d3d2a9bf48c154ab2acb5e44625776d821bf
c g++ (Gentoo 12.3.1_p20230526 p2) 12.3.1 20230526 -Wall -Wextra -O3 -DNDEBUG
c Sat Aug 9 07:26:21 PDT 2025 Linux cedar2.int.cedar.computecanada.ca 5.14.0-362.24.2.el9_3.x86_64 x86_64
c 
c --- [ limit ] --------------------------------------------------------------
c 
c setting time limit to 1600 seconds real time (due to '-t 1600')
c 
c --- [ parsing input ] ------------------------------------------------------
c 
c reading DIMACS file from './data/cnfs//rast-p03/rast-p03.67.cnf'
c opening file to read './data/cnfs//rast-p03/rast-p03.67.cnf'
c found 'p cnf 3679123 10964932' header
c parsed 10964932 clauses in 1.67 seconds process time
c 
c --- [ options ] ------------------------------------------------------------
c 
c   --compact=false                (different from default 'true')
c   --decompose=false              (different from default 'true')
c   --deduplicate=false            (different from default 'true')
c   --elim=false                   (different from default 'true')
c   --probe=false                  (different from default 'true')
c   --reduce=false                 (different from default 'true')
c   --subsume=false                (different from default 'true')
c   --ternary=false                (different from default 'true')
c   --transred=false               (different from default 'true')
c   --vivify=false                 (different from default 'true')
c 
c --- [ solving ] ------------------------------------------------------------
c 
c time measured in process time since initialization
c 
c  seconds    reductions  redundant   irredundant
c          MB     restarts       trail          variables
c            level   conflicts       glue             remaining
c 
c *  1.67 1614  0 0   0    0    0  0% 0 10554968 3392916 92%
c {  2.44 1649  0 0   0    0    0  0% 0 10554968 3392916 92%
c i  2.49 1650 495 0   0    4    2 11% 2 10554968 3392913 92%
c i  2.49 1650 510 0   0    5    2 12% 1 10554968 3392296 92%
c i  2.51 1650 554 0   0   23   18 14% 1 10554968 3392272 92%
c i  2.52 1650 556 0   0   31   25 14% 1 10554968 3392264 92%
c i  2.52 1650 556 0   0   33   25 14% 1 10554968 3392241 92%
c i  2.52 1650 557 0   0   35   26 14% 1 10554968 3392231 92%
c i  2.52 1650 557 0   0   37   27 14% 1 10554968 3392221 92%
c i  2.52 1650 557 0   0   39   28 14% 1 10554968 3392211 92%
c i  2.52 1650 557 0   0   41   29 14% 1 10554968 3392201 92%
c i  2.52 1651 557 0   0   43   30 14% 1 10554968 3392191 92%
c i  2.52 1651 557 0   0   45   31 14% 1 10554968 3392181 92%
c i  2.52 1651 557 0   0   47   32 14% 1 10554968 3392171 92%
c i  2.53 1651 557 0   0   49   33 14% 1 10554968 3392161 92%
c i  2.53 1651 557 0   0   51   34 14% 1 10554968 3392151 92%
c i  2.53 1651 556 0   0   53   35 14% 1 10554968 3392141 92%
c i  2.53 1651 556 0   0   55   36 14% 1 10554968 3392131 92%
c i  2.53 1651 556 0   0   57   37 14% 1 10554968 3392121 92%
c i  2.53 1651 556 0   0   59   38 13% 1 10554968 3392111 92%
c 
c  seconds     reductions  redundant   irredundant
c          MB      restarts       trail          variables
c             level   conflicts       glue             remaining
c 
c i  2.53 1651 555 0   0   61   39 13% 1 10554968 3392101 92%
c i  2.53 1651 555 0   0   63   40 13% 1 10554968 3392091 92%
c i  2.53 1651 555 0   0   65   41 13% 1 10554968 3392081 92%
c i  2.53 1651 555 0   0   67   42 13% 1 10554968 3392071 92%
c i  2.53 1651 554 0   0   69   43 13% 1 10554968 3392061 92%
c i  2.53 1651 554 0   0   71   44 13% 1 10554968 3392051 92%
c i  2.53 1651 554 0   0   73   45 13% 1 10554968 3392041 92%
c i  2.54 1651 553 0   0   75   46 13% 1 10554968 3392031 92%
c i  2.54 1651 553 0   0   77   47 13% 1 10554968 3392021 92%
c i  2.54 1651 553 0   0   79   48 13% 1 10554968 3392011 92%
c i  2.54 1651 552 0   0   81   49 13% 1 10554968 3392001 92%
c i  2.54 1651 552 0   0   83   50 13% 1 10554968 3391991 92%
c i  2.54 1651 551 0   0   85   51 13% 1 10554968 3391981 92%
c i  2.54 1651 551 0   0   87   52 13% 1 10554968 3391971 92%
c i  2.54 1651 551 0   0   89   53 13% 1 10554968 3391961 92%
c i  2.54 1651 550 0   0   91   54 13% 1 10554968 3391951 92%
c i  2.54 1651 550 0   0   93   55 13% 1 10554968 3391941 92%
c i  2.54 1651 549 0   0   95   56 13% 1 10554968 3391931 92%
c i  2.54 1651 549 0   0   97   57 13% 1 10554968 3391921 92%
c i  2.54 1651 549 0   0   99   58 13% 1 10554968 3391911 92%
c 
c  seconds     reductions  redundant   irredundant
c          MB      restarts       trail          variables
c             level   conflicts       glue             remaining
c 
c i  2.54 1651 548 0   0  101   59 13% 1 10554968 3391901 92%
c i  2.55 1651 548 0   0  103   60 13% 1 10554968 3391891 92%
c i  2.55 1651 547 0   0  105   61 12% 1 10554968 3391881 92%
c i  2.55 1651 547 0   0  107   62 12% 1 10554968 3391871 92%
... skipped 51 lines ...
c i  5.99 1654 180 0  78  875  671 15% 6 10554968 3391175 92%
c i  5.99 1654 180 0  78  876  671 15% 6 10554968 3391171 92%
c i  5.99 1654 180 0  78  877  671 15% 6 10554968 3391167 92%
c i  5.99 1654 180 0  78  878  671 15% 6 10554968 3391163 92%
c i  5.99 1654 179 0  78  879  671 15% 6 10554968 3391120 92%
c i  5.99 1654 178 0  78  885  676 15% 6 10554968 3391110 92%
c i  5.99 1654 178 0  78  886  676 15% 6 10554968 3391062 92%
c i  6.05 1654 174 0  78  919  704 15% 6 10554968 3391055 92%
c i  6.05 1654 173 0  78  926  710 15% 6 10554968 3391028 92%
c i  6.05 1654 172 0  78  928  710 15% 6 10554968 3391025 92%
c i  6.05 1654 172 0  78  929  710 15% 6 10554968 3391021 92%
c i  6.05 1654 172 0  78  930  710 15% 6 10554968 3391017 92%
c i  6.05 1654 172 0  78  931  710 15% 6 10554968 3391013 92%
c i  6.05 1654 172 0  78  932  710 15% 6 10554968 3391009 92%
c i  6.05 1654 172 0  78  933  710 15% 6 10554968 3391005 92%
c 
c  seconds     reductions  redundant   irredundant
c          MB      restarts       trail          variables
c             level   conflicts       glue             remaining
c 
c i  6.05 1654 172 0  78  934  710 15% 6 10554968 3391001 92%
c i  6.06 1654 171 0  78  942  717 15% 6 10554968 3390992 92%
c i  6.06 1654 170 0  78  943  717 15% 6 10554968 3390938 92%
c i  6.07 1654 170 0  78  946  718 15% 6 10554968 3390935 92%
c i  6.07 1654 170 0  78  947  718 15% 6 10554968 3390931 92%
c i  6.07 1654 170 0  78  948  718 15% 6 10554968 3390927 92%
c i  6.07 1654 170 0  78  949  718 15% 6 10554968 3390923 92%
c i  6.07 1654 169 0  78  950  718 15% 6 10554968 3390919 92%
c i  6.07 1654 169 0  78  951  718 15% 6 10554968 3390915 92%
c i  6.07 1654 169 0  78  952  718 15% 6 10554968 3390911 92%
c i  6.07 1654 169 0  78  954  719 15% 6 10554968 3390868 92%
c i  6.09 1654 166 0  78  973  735 15% 6 10554968 3390849 92%
c i  6.09 1654 166 0  78  974  735 15% 6 10554968 3390846 92%
c i  6.09 1654 166 0  78  975  735 15% 6 10554968 3390841 92%
c i  6.10 1654 165 0  78  979  738 15% 6 10554968 3390791 92%
c i  6.10 1654 165 0  78  982  740 14% 6 10554968 3390739 92%
c }  6.10 1654 163 0  78 1000  758 14% 6 10554968 3390739 92%
c [  6.10 1654  0 0  78 1000  758  0% 0 10554968 3390739 92%
c O  6.93 1654 6248 0  78 1003  761 40% 6 10554968 3390738 92%
c i  6.93 1654 12740 0  78 1253  867 99% 5 10554968 3390679 92%
c 
c  seconds       reductions  redundant   irredundant
c          MB        restarts       trail          variables
c              level    conflicts       glue             remaining
c 
c i  6.93 1654 12741 0  78 1288  884 99% 5 10554968 3390544 92%
c ]  7.01 1654 12741 0  78 1294  888 99% 5 10554968 3390464 92%
c 0  7.01 1654 12741 0  78 1294  888 99% 5 10554968 3390464 92%
c 
c --- [ result ] -------------------------------------------------------------
c 
s UNSATISFIABLE
c 
c --- [ run-time profiling ] -------------------------------------------------
c 
c process time taken by individual solving procedures
c (percentage relative to process time for solving)
c 
c         5.33  100.00% search
c         3.66   68.69% unstable
c         1.67   31.33% parse
c         0.90   16.92% stable
c         0.77   14.39% lucky
c         0.00    0.00% simplify
c   =================================
c         5.33   76.14% solve
c 
c last line shows process time for solving
c (percentage relative to total process time)
c 
c --- [ statistics ] ---------------------------------------------------------
c 
c chronological:               553        42.74 %  of conflicts
c conflicts:                  1294       242.59    per second
c decisions:                 29994      5623.01    per second
c fixed:                    286096         7.78 %  of all variables
c learned:                    1182        91.34 %  per conflict
c learned_lits:              24863       100.00 %  learned literals
c minimized:                     0         0.00 %  learned literals
c shrunken:                   8517        34.26 %  learned literals
c minishrunken:               1733         6.97 %  learned literals
c otfs:                         16         1.24 %  of conflict
c propagations:           41182020         7.72 M  per second
c rephased:                      1      1294.00    interval
c restarts:                     78        16.59    interval
c stabilizing:                   1        22.72 %  of conflicts
c subsumed:                    173         0.00 %  of all clauses
c strengthened:                 16         0.00 %  of all clauses
c 
c seconds are measured in process time for solving
c 
c --- [ resources ] ----------------------------------------------------------
c 
c total process time since initialization:         7.01    seconds
c total real time since initialization:            7.04    seconds
c maximum resident set size of process:         1652.14    MB
c 
c --- [ shutting down ] ------------------------------------------------------
c 
c exit 20
